mapa = [|
         9,9,9,9,9,9,9,9,9|
         9,8,1,8,1,8,2,8,9|
         9,8,8,8,8,8,8,8,9|
         9,8,8,8,8,8,8,8,9|
         9,9,9,9,9,9,9,9,9|];
dimx = 5;
dimy = 9;
filav = 4;
colav = 5;
from = [1,2,3,4,5,6,7,8,10,11,12,13,14,15,16,17,19,20,21,22,23,24,25,26,28,29,30,31,32,33,34,35,1,2,3,4,5,6,7,8,10,11,12,13,14,15,16,17,19,20,21,22,23,24,25,26,28,29,30,31,32,33,34,35,9,18,27,36,37,38,39,40,41,42,43,44];
to = [2,3,4,5,6,7,8,9,11,12,13,14,15,16,17,18,20,21,22,23,24,25,26,27,29,30,31,32,33,34,35,36,10,11,12,13,14,15,16,17,19,20,21,22,23,24,25,26,28,29,30,31,32,33,34,35,37,38,39,40,41,42,43,44,18,27,36,45,38,39,40,41,42,43,44,45];
